30 1 3
737 659 218 790 542 850 968 527 466 91 823 38 83 125 706 826 304 739 845 519 959 830 699 337 604 574 303 25 251 155 
357 988 814 575 777 355 425 744 882 890 835 704 928 918 829 633 744 132 371 588 651 329 417 349 666 20 922 968 44 173 
123 401 161 936 975 938 291 399 681 172 289 516 876 217 433 704 849 176 836 220 763 487 549 180 835 214 199 757 182 243 
9290 3040 6440 890 2400 6180 260 5300 170 7070 7020 3060 2220 5780 5220 6550 2820 3710 8310 1180 5900 5940 6040 1380 7730 4380 3520 9720 1940 5330 
69390
